words_hard_train/8569.qaiger
aag 121 16 0 1 105
2
4
8
12
16
20
70
84
96
108
116
128
154
176
206
208
242
6 3 5
10 6 9
14 10 13
18 14 17
22 19 20
24 18 21
26 23 25
28 15 16
30 29 19
32 2 4
34 33 8
36 7 9
38 35 37
40 11 12
42 41 15
44 38 43
46 31 44
48 26 47
50 27 46
52 49 51
54 30 45
56 55 47
58 8 4
60 58 3
62 60 12
64 56 62
66 52 64
68 67 51
72 24 71
74 25 70
76 73 75
78 69 77
80 68 76
82 79 81
86 83 85
88 82 84
90 87 89
92 53 65
94 93 67
98 94 96
100 91 98
102 9 4
104 103 35
106 105 61
110 106 108
112 107 109
114 111 113
118 117 4
120 115 119
122 116 5
124 114 123
126 121 125
130 128 2
132 126 131
134 129 3
136 132 135
138 131 123
140 139 119
142 141 111
144 143 113
146 39 42
148 147 45
150 149 61
152 151 63
156 153 155
158 152 154
160 157 159
162 145 161
164 144 160
166 163 165
168 136 167
170 165 159
172 57 63
174 173 65
178 175 177
180 174 176
182 179 181
184 171 182
186 185 181
188 90 187
190 95 97
192 191 99
194 189 192
196 168 195
198 170 183
200 199 185
202 196 201
204 101 202
210 206 209
212 207 208
214 211 213
216 214 73
218 215 72
220 217 219
222 220 79
224 221 78
226 223 225
228 227 87
230 226 86
232 229 231
234 90 99
236 235 186
238 237 193
240 233 239
242 204 240
i0 1 x1[0]
i1 1 x1[1]
i2 1 x1[2]
i3 1 x1[3]
i4 1 x1[4]
i5 1 x1[5]
i6 1 x1[6]
i7 2 y2[6]
i8 2 y2[5]
i9 2 y2[2]
i10 2 y2[1]
i11 2 y2[0]
i12 2 y2[3]
i13 2 y2[4]
i14 2 y2[7]
i15 1 x1[7]
o0 bool[0]
c
simplified
  ==
    subtract
      2 y2
      subtract
        invert
          1
        1 x1
    1
