words_hard_train/8569.qaiger.qdimacs
p cnf 121 316
a 1 2 35 4 6 8 104 10 0
e 3 5 7 9 11 12 13 14 15 16 17 18 19 20 21 22 23 24 25 26 27 28 29 30 31 32 33 34 36 37 38 39 40 41 42 43 44 45 46 47 48 49 50 51 52 53 54 55 56 57 58 59 60 61 62 63 64 65 66 67 68 69 70 71 72 73 74 75 76 77 78 79 80 81 82 83 84 85 86 87 88 89 90 91 92 93 94 95 96 97 98 99 100 101 102 103 105 106 107 108 109 110 111 112 113 114 115 116 117 118 119 120 121 0
1 2 3 0
-1 -3 0
-2 -3 0
-3 4 5 0
3 -5 0
-4 -5 0
-5 6 7 0
5 -7 0
-6 -7 0
-7 8 9 0
7 -9 0
-8 -9 0
9 -10 11 0
-9 -11 0
10 -11 0
-9 10 12 0
9 -12 0
-10 -12 0
11 12 13 0
-11 -13 0
-12 -13 0
7 -8 14 0
-7 -14 0
8 -14 0
14 9 15 0
-14 -15 0
-9 -15 0
-1 -2 16 0
1 -16 0
2 -16 0
16 -4 17 0
-16 -17 0
4 -17 0
3 4 18 0
-3 -18 0
-4 -18 0
17 18 19 0
-17 -19 0
-18 -19 0
5 -6 20 0
-5 -20 0
6 -20 0
20 7 21 0
-20 -21 0
-7 -21 0
-19 21 22 0
19 -22 0
-21 -22 0
15 -22 23 0
-15 -23 0
22 -23 0
-13 23 24 0
13 -24 0
-23 -24 0
13 -23 25 0
-13 -25 0
23 -25 0
24 25 26 0
-24 -26 0
-25 -26 0
-15 22 27 0
15 -27 0
-22 -27 0
27 23 28 0
-27 -28 0
-23 -28 0
-4 -2 29 0
4 -29 0
2 -29 0
-29 1 30 0
29 -30 0
-1 -30 0
-30 -6 31 0
30 -31 0
6 -31 0
-28 -31 32 0
28 -32 0
31 -32 0
-26 -32 33 0
26 -33 0
32 -33 0
33 25 34 0
-33 -34 0
-25 -34 0
-12 35 36 0
12 -36 0
-35 -36 0
12 -35 37 0
-12 -37 0
35 -37 0
36 37 38 0
-36 -38 0
-37 -38 0
34 38 39 0
-34 -39 0
-38 -39 0
-34 -38 40 0
34 -40 0
38 -40 0
39 40 41 0
-39 -41 0
-40 -41 0
41 42 43 0
-41 -43 0
-42 -43 0
-41 -42 44 0
41 -44 0
42 -44 0
43 44 45 0
-43 -45 0
-44 -45 0
26 32 46 0
-26 -46 0
-32 -46 0
46 33 47 0
-46 -47 0
-33 -47 0
-47 -48 49 0
47 -49 0
48 -49 0
45 -49 50 0
-45 -50 0
49 -50 0
4 -2 51 0
-4 -51 0
2 -51 0
51 17 52 0
-51 -52 0
-17 -52 0
52 30 53 0
-52 -53 0
-30 -53 0
-53 -54 55 0
53 -55 0
54 -55 0
53 54 56 0
-53 -56 0
-54 -56 0
55 56 57 0
-55 -57 0
-56 -57 0
58 -2 59 0
-58 -59 0
2 -59 0
57 59 60 0
-57 -60 0
-59 -60 0
-58 2 61 0
58 -61 0
-2 -61 0
-57 61 62 0
57 -62 0
-61 -62 0
60 62 63 0
-60 -63 0
-62 -63 0
-64 -1 65 0
64 -65 0
1 -65 0
-63 65 66 0
63 -66 0
-65 -66 0
64 1 67 0
-64 -67 0
-1 -67 0
-66 67 68 0
66 -68 0
-67 -68 0
65 61 69 0
-65 -69 0
-61 -69 0
69 59 70 0
-69 -70 0
-59 -70 0
70 55 71 0
-70 -71 0
-55 -71 0
71 56 72 0
-71 -72 0
-56 -72 0
19 -21 73 0
-19 -73 0
21 -73 0
73 22 74 0
-73 -74 0
-22 -74 0
74 30 75 0
-74 -75 0
-30 -75 0
75 31 76 0
-75 -76 0
-31 -76 0
76 77 78 0
-76 -78 0
-77 -78 0
-76 -77 79 0
76 -79 0
77 -79 0
78 79 80 0
-78 -80 0
-79 -80 0
72 80 81 0
-72 -81 0
-80 -81 0
-72 -80 82 0
72 -82 0
80 -82 0
81 82 83 0
-81 -83 0
-82 -83 0
-68 83 84 0
68 -84 0
-83 -84 0
82 79 85 0
-82 -85 0
-79 -85 0
28 31 86 0
-28 -86 0
-31 -86 0
86 32 87 0
-86 -87 0
-32 -87 0
87 88 89 0
-87 -89 0
-88 -89 0
-87 -88 90 0
87 -90 0
88 -90 0
89 90 91 0
-89 -91 0
-90 -91 0
85 -91 92 0
-85 -92 0
91 -92 0
92 90 93 0
-92 -93 0
-90 -93 0
-45 93 94 0
45 -94 0
-93 -94 0
47 48 95 0
-47 -95 0
-48 -95 0
95 49 96 0
-95 -96 0
-49 -96 0
94 -96 97 0
-94 -97 0
96 -97 0
-84 97 98 0
84 -98 0
-97 -98 0
-85 91 99 0
85 -99 0
-91 -99 0
99 92 100 0
-99 -100 0
-92 -100 0
-98 100 101 0
98 -101 0
-100 -101 0
50 -101 102 0
-50 -102 0
101 -102 0
-103 104 105 0
103 -105 0
-104 -105 0
103 -104 106 0
-103 -106 0
104 -106 0
105 106 107 0
-105 -107 0
-106 -107 0
-107 36 108 0
107 -108 0
-36 -108 0
107 -36 109 0
-107 -109 0
36 -109 0
108 109 110 0
-108 -110 0
-109 -110 0
-110 39 111 0
110 -111 0
-39 -111 0
110 -39 112 0
-110 -112 0
39 -112 0
111 112 113 0
-111 -113 0
-112 -113 0
113 43 114 0
-113 -114 0
-43 -114 0
-113 -43 115 0
113 -115 0
43 -115 0
114 115 116 0
-114 -116 0
-115 -116 0
-45 49 117 0
45 -117 0
-49 -117 0
117 -93 118 0
-117 -118 0
93 -118 0
118 96 119 0
-118 -119 0
-96 -119 0
116 119 120 0
-116 -120 0
-119 -120 0
-102 -120 121 0
102 -121 0
120 -121 0
121 0
